100 100 100
50
87 44 20
4 34 22
31 46 48
51 57 43
25 39 99
17 33 84
74 24 99
85 87 77
80 25 68
52 20 25
28 14 37
100 88 68
61 12 98
91 41 91
67 73 88
46 30 10
44 71 44
52 30 58
87 33 53
64 23 14
29 67 39
6 63 78
37 5 60
81 85 71
100 19 88
97 28 20
94 13 63
58 5 15
70 39 81
9 27 8
42 93 69
58 41 10
31 86 32
67 98 61
92 16 25
49 72 23
24 58 79
72 89 80
82 14 4
54 94 25
88 66 30
20 51 59
90 31 23
68 48 75
8 43 22
59 32 90
33 3 1
43 9 33
98 95 3
87 79 84
